1000 100
13 388
39 219
392 497
285 196
237 472
312 110
70 338
197 352
8 176
434 352
320 447
137 217
468 263
435 196
294 54
259 226
31 130
281 68
499 147
317 412
297 29
383 420
444 355
289 480
168 191
127 58
411 202
19 20
276 482
208 364
85 266
479 448
426 382
201 10
322 213
245 122
154 103
244 361
382 416
41 37
176 426
168 88
432 6
26 398
13 476
238 84
402 202
50 89
391 120
222 203
314 334
152 187
279 332
143 491
307 389
25 282
219 346
305 311
202 65
465 431
335 264
240 436
192 279
133 171
417 417
369 456
182 249
480 183
35 277
68 151
295 245
380 169
212 107
157 208
312 218
351 157
145 451
185 469
164 65
149 381
84 260
141 425
121 374
167 407
293 162
122 353
293 303
376 206
388 224
227 366
136 209
395 145
353 255
275 165
9 333
123 13
469 444
280 111
395 89
409 384
